10
1 0 8
2 0 7
2 1 2
3 0 5
3 1 5
3 2 8
4 0 7
4 1 2
4 2 3
4 3 3
5 0 9
5 1 4
5 2 4
5 3 3
5 4 6
6 0 3
6 1 6
6 2 4
6 3 10
6 4 4
6 5 3
7 0 3
7 1 2
7 2 6
7 3 5
7 4 1
7 5 1
7 6 10
8 0 7
8 1 9
8 2 9
8 3 4
8 4 7
8 5 9
8 6 9
8 7 2
9 0 6
9 1 8
9 2 2
9 3 8
9 4 3
9 5 6
9 6 2
9 7 4
9 8 5
